NAME : ../File/prFile/tspFile/tsp_file18.tsp.423.tour
COMMENT : Length = 423
COMMENT : Found by LKH-3 [Keld Helsgaun] Wed Jun 14 17:47:17 2023
TYPE : TOUR
DIMENSION : 30
TOUR_SECTION
1
16
11
7
4
15
12
19
2
8
6
5
10
30
9
23
22
3
27
24
20
14
28
29
18
26
17
13
21
25
-1
EOF
